p cnf 224 998
113 131 0
88 116 120 0
114 166 168 0
97 107 0
95 115 183 186 0
142 151 152 0
91 123 129 154 158 0
73 92 165 0
103 111 141 0
93 161 204 0
85 87 136 145 0
160 206 209 0
102 162 0
79 109 117 174 0
76 99 0
75 83 0
90 112 126 128 0
72 100 216 0
96 104 0
71 139 0
81 110 118 167 169 171 0
106 172 173 177 179 0
78 180 181 0
143 148 153 184 187 188 0
125 155 159 0
74 157 189 0
132 191 193 194 0
94 196 197 200 201 0
89 121 137 205 0
163 207 208 210 0
134 211 0
98 108 175 212 0
144 149 213 0
82 156 215 0
101 127 130 217 0
218 219 221 0
199 203 222 0
119 146 224 0
65 66 67 68 70 0
63 64 0
61 105 170 0
60 176 178 0
58 122 124 0
54 56 57 0
-52 -53 0
-53 -120 0
-50 -53 0
-49 -53 0
-53 -114 0
-52 -120 0
-50 -52 0
-49 -52 0
-52 -114 0
-50 -120 0
-49 -120 0
-114 -120 0
-49 -50 0
-50 -114 0
-49 -114 0
-115 -142 0
-115 -154 0
-103 -115 0
-48 -115 0
-115 -161 0
-142 -154 0
-103 -142 0
-48 -142 0
-142 -161 0
-103 -154 0
-48 -154 0
-154 -161 0
-48 -103 0
-103 -161 0
-48 -161 0
-78 -106 0
-106 -184 0
-106 -157 0
-55 -106 0
-106 -132 0
-78 -184 0
-78 -157 0
-55 -78 0
-78 -132 0
-157 -184 0
-55 -184 0
-132 -184 0
-55 -157 0
-132 -157 0
-55 -132 0
-47 -135 0
-135 -207 0
-134 -135 0
-98 -135 0
-45 -135 0
-47 -207 0
-47 -134 0
-47 -98 0
-45 -47 0
-134 -207 0
-98 -207 0
-45 -207 0
-98 -134 0
-45 -134 0
-45 -98 0
-44 -127 0
-127 -218 0
-43 -127 0
-127 -146 0
-68 -127 0
-44 -218 0
-43 -44 0
-44 -146 0
-44 -68 0
-43 -218 0
-146 -218 0
-68 -218 0
-43 -146 0
-43 -68 0
-68 -146 0
-42 -170 0
-42 -176 0
-42 -185 0
-42 -58 0
-42 -57 0
-170 -176 0
-170 -185 0
-58 -170 0
-57 -170 0
-176 -185 0
-58 -176 0
-57 -176 0
-58 -185 0
-57 -185 0
-57 -58 0
-53 -115 0
-53 -106 0
-53 -135 0
-53 -127 0
-42 -53 0
-106 -115 0
-115 -135 0
-115 -127 0
-42 -115 0
-106 -135 0
-106 -127 0
-42 -106 0
-127 -135 0
-42 -135 0
-42 -127 0
-52 -142 0
-52 -78 0
-47 -52 0
-44 -52 0
-52 -170 0
-78 -142 0
-47 -142 0
-44 -142 0
-142 -170 0
-47 -78 0
-44 -78 0
-78 -170 0
-44 -47 0
-47 -170 0
-44 -170 0
-120 -154 0
-120 -184 0
-120 -207 0
-120 -218 0
-120 -176 0
-154 -184 0
-154 -207 0
-154 -218 0
-154 -176 0
-184 -207 0
-184 -218 0
-176 -184 0
-207 -218 0
-176 -207 0
-176 -218 0
-50 -103 0
-50 -157 0
-50 -134 0
-43 -50 0
-50 -185 0
-103 -157 0
-103 -134 0
-43 -103 0
-103 -185 0
-134 -157 0
-43 -157 0
-157 -185 0
-43 -134 0
-134 -185 0
-43 -185 0
-48 -49 0
-49 -55 0
-49 -98 0
-49 -146 0
-49 -58 0
-48 -55 0
-48 -98 0
-48 -146 0
-48 -58 0
-55 -98 0
-55 -146 0
-55 -58 0
-98 -146 0
-58 -98 0
-58 -146 0
-114 -161 0
-114 -132 0
-45 -114 0
-68 -114 0
-57 -114 0
-132 -161 0
-45 -161 0
-68 -161 0
-57 -161 0
-45 -132 0
-68 -132 0
-57 -132 0
-45 -68 0
-45 -57 0
-57 -68 0
-41 -95 0
-41 -152 0
-41 -141 0
-41 -192 0
-95 -152 0
-95 -141 0
-95 -192 0
-141 -152 0
-152 -192 0
-141 -192 0
-100 -104 0
-100 -220 0
-100 -223 0
-71 -100 0
-104 -220 0
-104 -223 0
-71 -104 0
-220 -223 0
-71 -220 0
-71 -223 0
-167 -172 0
-167 -180 0
-167 -189 0
-40 -167 0
-172 -180 0
-172 -189 0
-40 -172 0
-180 -189 0
-40 -180 0
-40 -189 0
-39 -89 0
-38 -89 0
-89 -211 0
-89 -108 0
-38 -39 0
-39 -211 0
-39 -108 0
-38 -211 0
-38 -108 0
-108 -211 0
-130 -215 0
-37 -215 0
-51 -215 0
-119 -215 0
-37 -130 0
-51 -130 0
-119 -130 0
-37 -51 0
-37 -119 0
-51 -119 0
-41 -100 0
-41 -167 0
-41 -89 0
-41 -215 0
-100 -167 0
-89 -100 0
-100 -215 0
-89 -167 0
-167 -215 0
-89 -215 0
-95 -104 0
-95 -172 0
-39 -95 0
-95 -130 0
-104 -172 0
-39 -104 0
-104 -130 0
-39 -172 0
-130 -172 0
-39 -130 0
-152 -220 0
-152 -180 0
-38 -152 0
-37 -152 0
-180 -220 0
-38 -220 0
-37 -220 0
-38 -180 0
-37 -180 0
-37 -38 0
-141 -223 0
-141 -189 0
-141 -211 0
-51 -141 0
-189 -223 0
-211 -223 0
-51 -223 0
-189 -211 0
-51 -189 0
-51 -211 0
-71 -192 0
-40 -192 0
-108 -192 0
-119 -192 0
-40 -71 0
-71 -108 0
-71 -119 0
-40 -108 0
-40 -119 0
-108 -119 0
-36 -91 0
-36 -92 0
-91 -92 0
-34 -35 0
-35 -79 0
-34 -79 0
-143 -169 0
-155 -169 0
-143 -155 0
-35 -36 0
-36 -169 0
-35 -169 0
-34 -91 0
-91 -143 0
-34 -143 0
-79 -92 0
-92 -155 0
-79 -155 0
-33 -160 0
-32 -33 0
-31 -33 0
-33 -90 0
-32 -160 0
-31 -160 0
-90 -160 0
-31 -32 0
-32 -90 0
-31 -90 0
-96 -216 0
-202 -216 0
-30 -216 0
-28 -216 0
-96 -202 0
-30 -96 0
-28 -96 0
-30 -202 0
-28 -202 0
-28 -30 0
-81 -173 0
-81 -148 0
-81 -191 0
-81 -196 0
-148 -173 0
-173 -191 0
-173 -196 0
-148 -191 0
-148 -196 0
-191 -196 0
-86 -121 0
-121 -208 0
-27 -121 0
-121 -144 0
-86 -208 0
-27 -86 0
-86 -144 0
-27 -208 0
-144 -208 0
-27 -144 0
-101 -156 0
-156 -219 0
-67 -156 0
-138 -156 0
-101 -219 0
-67 -101 0
-101 -138 0
-67 -219 0
-138 -219 0
-67 -138 0
-33 -216 0
-33 -81 0
-33 -121 0
-33 -156 0
-81 -216 0
-121 -216 0
-156 -216 0
-81 -121 0
-81 -156 0
-121 -156 0
-96 -160 0
-160 -173 0
-86 -160 0
-101 -160 0
-96 -173 0
-86 -96 0
-96 -101 0
-86 -173 0
-101 -173 0
-86 -101 0
-32 -202 0
-32 -148 0
-32 -208 0
-32 -219 0
-148 -202 0
-202 -208 0
-202 -219 0
-148 -208 0
-148 -219 0
-208 -219 0
-30 -31 0
-31 -191 0
-27 -31 0
-31 -67 0
-30 -191 0
-27 -30 0
-30 -67 0
-27 -191 0
-67 -191 0
-27 -67 0
-28 -90 0
-90 -196 0
-90 -144 0
-90 -138 0
-28 -196 0
-28 -144 0
-28 -138 0
-144 -196 0
-138 -196 0
-138 -144 0
-113 -198 0
-26 -113 0
-113 -116 0
-24 -113 0
-107 -113 0
-26 -198 0
-116 -198 0
-24 -198 0
-107 -198 0
-26 -116 0
-24 -26 0
-26 -107 0
-24 -116 0
-107 -116 0
-24 -107 0
-77 -183 0
-77 -151 0
-77 -158 0
-23 -77 0
-77 -136 0
-151 -183 0
-158 -183 0
-23 -183 0
-136 -183 0
-151 -158 0
-23 -151 0
-136 -151 0
-23 -158 0
-136 -158 0
-23 -136 0
-46 -206 0
-46 -162 0
-46 -133 0
-46 -83 0
-46 -126 0
-162 -206 0
-133 -206 0
-83 -206 0
-126 -206 0
-133 -162 0
-83 -162 0
-126 -162 0
-83 -133 0
-126 -133 0
-83 -126 0
-171 -177 0
-171 -181 0
-171 -187 0
-164 -171 0
-171 -197 0
-177 -181 0
-177 -187 0
-164 -177 0
-177 -197 0
-181 -187 0
-164 -181 0
-181 -197 0
-164 -187 0
-187 -197 0
-164 -197 0
-84 -205 0
-22 -205 0
-205 -210 0
-175 -205 0
-149 -205 0
-22 -84 0
-84 -210 0
-84 -175 0
-84 -149 0
-22 -210 0
-22 -175 0
-22 -149 0
-175 -210 0
-149 -210 0
-149 -175 0
-21 -64 0
-61 -64 0
-64 -178 0
-64 -124 0
-20 -64 0
-21 -61 0
-21 -178 0
-21 -124 0
-20 -21 0
-61 -178 0
-61 -124 0
-20 -61 0
-124 -178 0
-20 -178 0
-20 -124 0
-77 -113 0
-46 -113 0
-113 -171 0
-113 -205 0
-64 -113 0
-46 -77 0
-77 -171 0
-77 -205 0
-64 -77 0
-46 -171 0
-46 -205 0
-46 -64 0
-171 -205 0
-64 -171 0
-64 -205 0
-183 -198 0
-198 -206 0
-177 -198 0
-84 -198 0
-21 -198 0
-183 -206 0
-177 -183 0
-84 -183 0
-21 -183 0
-177 -206 0
-84 -206 0
-21 -206 0
-84 -177 0
-21 -177 0
-21 -84 0
-26 -151 0
-26 -162 0
-26 -181 0
-22 -26 0
-26 -61 0
-151 -162 0
-151 -181 0
-22 -151 0
-61 -151 0
-162 -181 0
-22 -162 0
-61 -162 0
-22 -181 0
-61 -181 0
-22 -61 0
-116 -158 0
-116 -133 0
-116 -187 0
-116 -210 0
-116 -178 0
-133 -158 0
-158 -187 0
-158 -210 0
-158 -178 0
-133 -187 0
-133 -210 0
-133 -178 0
-187 -210 0
-178 -187 0
-178 -210 0
-23 -24 0
-24 -83 0
-24 -164 0
-24 -175 0
-24 -124 0
-23 -83 0
-23 -164 0
-23 -175 0
-23 -124 0
-83 -164 0
-83 -175 0
-83 -124 0
-164 -175 0
-124 -164 0
-124 -175 0
-107 -136 0
-107 -126 0
-107 -197 0
-107 -149 0
-20 -107 0
-126 -136 0
-136 -197 0
-136 -149 0
-20 -136 0
-126 -197 0
-126 -149 0
-20 -126 0
-149 -197 0
-20 -197 0
-20 -149 0
-19 -69 0
-18 -19 0
-19 -166 0
-18 -69 0
-69 -166 0
-18 -166 0
-102 -109 0
-99 -102 0
-102 -214 0
-99 -109 0
-109 -214 0
-99 -214 0
-16 -199 0
-16 -25 0
-16 -66 0
-25 -199 0
-66 -199 0
-25 -66 0
-105 -182 0
-105 -150 0
-56 -105 0
-150 -182 0
-56 -182 0
-56 -150 0
-19 -102 0
-16 -19 0
-19 -105 0
-16 -102 0
-102 -105 0
-16 -105 0
-69 -109 0
-69 -199 0
-69 -182 0
-109 -199 0
-109 -182 0
-182 -199 0
-18 -99 0
-18 -25 0
-18 -150 0
-25 -99 0
-99 -150 0
-25 -150 0
-166 -214 0
-66 -166 0
-56 -166 0
-66 -214 0
-56 -214 0
-56 -66 0
-88 -131 0
-15 -131 0
-62 -131 0
-131 -168 0
-97 -131 0
-15 -88 0
-62 -88 0
-88 -168 0
-88 -97 0
-15 -62 0
-15 -168 0
-15 -97 0
-62 -168 0
-62 -97 0
-97 -168 0
-59 -123 0
-59 -73 0
-14 -59 0
-59 -93 0
-59 -145 0
-73 -123 0
-14 -123 0
-93 -123 0
-123 -145 0
-14 -73 0
-73 -93 0
-73 -145 0
-14 -93 0
-14 -145 0
-93 -145 0
-12 -13 0
-13 -117 0
-13 -75 0
-11 -13 0
-13 -112 0
-12 -117 0
-12 -75 0
-11 -12 0
-12 -112 0
-75 -117 0
-11 -117 0
-112 -117 0
-11 -75 0
-75 -112 0
-11 -112 0
-110 -153 0
-110 -159 0
-110 -140 0
-110 -193 0
-110 -200 0
-153 -159 0
-140 -153 0
-153 -193 0
-153 -200 0
-140 -159 0
-159 -193 0
-159 -200 0
-140 -193 0
-140 -200 0
-193 -200 0
-137 -163 0
-10 -137 0
-137 -212 0
-9 -137 0
-137 -213 0
-10 -163 0
-163 -212 0
-9 -163 0
-163 -213 0
-10 -212 0
-9 -10 0
-10 -213 0
-9 -212 0
-212 -213 0
-9 -213 0
-82 -221 0
-82 -222 0
-82 -224 0
-70 -82 0
-17 -82 0
-221 -222 0
-221 -224 0
-70 -221 0
-17 -221 0
-222 -224 0
-70 -222 0
-17 -222 0
-70 -224 0
-17 -224 0
-17 -70 0
-59 -131 0
-13 -131 0
-110 -131 0
-131 -137 0
-82 -131 0
-13 -59 0
-59 -110 0
-59 -137 0
-59 -82 0
-13 -110 0
-13 -137 0
-13 -82 0
-110 -137 0
-82 -110 0
-82 -137 0
-88 -123 0
-12 -88 0
-88 -153 0
-88 -163 0
-88 -221 0
-12 -123 0
-123 -153 0
-123 -163 0
-123 -221 0
-12 -153 0
-12 -163 0
-12 -221 0
-153 -163 0
-153 -221 0
-163 -221 0
-15 -73 0
-15 -117 0
-15 -159 0
-10 -15 0
-15 -222 0
-73 -117 0
-73 -159 0
-10 -73 0
-73 -222 0
-117 -159 0
-10 -117 0
-117 -222 0
-10 -159 0
-159 -222 0
-10 -222 0
-14 -62 0
-62 -75 0
-62 -140 0
-62 -212 0
-62 -224 0
-14 -75 0
-14 -140 0
-14 -212 0
-14 -224 0
-75 -140 0
-75 -212 0
-75 -224 0
-140 -212 0
-140 -224 0
-212 -224 0
-93 -168 0
-11 -168 0
-168 -193 0
-9 -168 0
-70 -168 0
-11 -93 0
-93 -193 0
-9 -93 0
-70 -93 0
-11 -193 0
-9 -11 0
-11 -70 0
-9 -193 0
-70 -193 0
-9 -70 0
-97 -145 0
-97 -112 0
-97 -200 0
-97 -213 0
-17 -97 0
-112 -145 0
-145 -200 0
-145 -213 0
-17 -145 0
-112 -200 0
-112 -213 0
-17 -112 0
-200 -213 0
-17 -200 0
-17 -213 0
-8 -129 0
-8 -195 0
-8 -87 0
-129 -195 0
-87 -129 0
-87 -195 0
-7 -72 0
-72 -139 0
-6 -72 0
-7 -139 0
-6 -7 0
-6 -139 0
-118 -188 0
-5 -118 0
-118 -201 0
-5 -188 0
-188 -201 0
-5 -201 0
-60 -63 0
-63 -122 0
-4 -63 0
-60 -122 0
-4 -60 0
-4 -122 0
-8 -72 0
-8 -118 0
-8 -63 0
-72 -118 0
-63 -72 0
-63 -118 0
-7 -129 0
-129 -188 0
-60 -129 0
-7 -188 0
-7 -60 0
-60 -188 0
-139 -195 0
-5 -195 0
-122 -195 0
-5 -139 0
-122 -139 0
-5 -122 0
-6 -87 0
-87 -201 0
-4 -87 0
-6 -201 0
-4 -6 0
-4 -201 0
-165 -186 0
-111 -186 0
-186 -204 0
-85 -186 0
-111 -165 0
-165 -204 0
-85 -165 0
-111 -204 0
-85 -111 0
-85 -204 0
-174 -209 0
-76 -209 0
-3 -209 0
-128 -209 0
-76 -174 0
-3 -174 0
-128 -174 0
-3 -76 0
-76 -128 0
-3 -128 0
-125 -179 0
-74 -179 0
-179 -194 0
-94 -179 0
-74 -125 0
-125 -194 0
-94 -125 0
-74 -194 0
-74 -94 0
-94 -194 0
-203 -217 0
-2 -217 0
-65 -217 0
-29 -217 0
-2 -203 0
-65 -203 0
-29 -203 0
-2 -65 0
-2 -29 0
-29 -65 0
-80 -147 0
-1 -80 0
-54 -80 0
-80 -190 0
-1 -147 0
-54 -147 0
-147 -190 0
-1 -54 0
-1 -190 0
-54 -190 0
-186 -209 0
-179 -186 0
-186 -217 0
-80 -186 0
-179 -209 0
-209 -217 0
-80 -209 0
-179 -217 0
-80 -179 0
-80 -217 0
-165 -174 0
-125 -165 0
-165 -203 0
-147 -165 0
-125 -174 0
-174 -203 0
-147 -174 0
-125 -203 0
-125 -147 0
-147 -203 0
-76 -111 0
-74 -111 0
-2 -111 0
-1 -111 0
-74 -76 0
-2 -76 0
-1 -76 0
-2 -74 0
-1 -74 0
-1 -2 0
-3 -204 0
-194 -204 0
-65 -204 0
-54 -204 0
-3 -194 0
-3 -65 0
-3 -54 0
-65 -194 0
-54 -194 0
-54 -65 0
-85 -128 0
-85 -94 0
-29 -85 0
-85 -190 0
-94 -128 0
-29 -128 0
-128 -190 0
-29 -94 0
-94 -190 0
-29 -190 0
